<?xml version = "1.0" encoding="UTF-8" standalone="yes"?>
<CPLEXSolution version="1.2">
 <header
   problemName="inst_1"
   objectiveValue="72.249599430300862"
   solutionTypeValue="1"
   solutionTypeString="basic"
   solutionStatusValue="1"
   solutionStatusString="optimal"
   solutionMethodString="dual"
   primalFeasible="1"
   dualFeasible="1"
   simplexIterations="3"
   writeLevel="1"/>
 <quality
   epRHS="9.9999999999999995e-07"
   epOpt="9.9999999999999995e-07"
   maxPrimalInfeas="0"
   maxDualInfeas="0"
   maxPrimalResidual="6.0396132539608516e-14"
   maxDualResidual="1.4210854715202004e-14"
   maxX="0.92504895851878222"
   maxPi="1.1876446501691296"
   maxSlack="580.51397543172516"
   maxRedCost="147.49083140466442"
   kappa="9.1405773628048781"/>
 <linearConstraints>
  <constraint name="c0" index="0" status="BS" slack="203.34181947658897" dual="-0"/>
  <constraint name="c1" index="1" status="BS" slack="61.719067117678485" dual="-0"/>
  <constraint name="c2" index="2" status="BS" slack="6.5736158091507946" dual="-0"/>
  <constraint name="c3" index="3" status="BS" slack="214.11393982552963" dual="-0"/>
  <constraint name="c4" index="4" status="BS" slack="110.12390956026348" dual="-0"/>
  <constraint name="c5" index="5" status="BS" slack="536.05269716930752" dual="-0"/>
  <constraint name="c6" index="6" status="BS" slack="465.81698415524301" dual="-0"/>
  <constraint name="c7" index="7" status="BS" slack="87.780487804878049" dual="-0"/>
  <constraint name="c8" index="8" status="LL" slack="0" dual="0.88784048424425843"/>
  <constraint name="c9" index="9" status="BS" slack="580.51397543172516" dual="-0"/>
  <constraint name="c10" index="10" status="BS" slack="382.88178743101304" dual="-0"/>
  <constraint name="c11" index="11" status="BS" slack="524.20259925226992" dual="-0"/>
  <constraint name="c12" index="12" status="BS" slack="421.33576642335765" dual="-0"/>
  <constraint name="c13" index="13" status="LL" slack="0" dual="1.1876446501691296"/>
  <constraint name="c14" index="14" status="BS" slack="95.090083674559367" dual="-0"/>
 </linearConstraints>
 <variables>
  <variable name="x0" index="0" status="LL" value="0" reducedCost="-134.2171977924159"/>
  <variable name="x1" index="1" status="LL" value="0" reducedCost="-69.814847783514324"/>
  <variable name="x2" index="2" status="BS" value="0.11785650703222361" reducedCost="0"/>
  <variable name="x3" index="3" status="LL" value="0" reducedCost="-17.175894605661398"/>
  <variable name="x4" index="4" status="LL" value="0" reducedCost="-85.536763396831063"/>
  <variable name="x5" index="5" status="BS" value="0.92504895851878222" reducedCost="0"/>
  <variable name="x6" index="6" status="LL" value="0" reducedCost="-147.49083140466442"/>
  <variable name="s0" index="7" status="LL" value="0" reducedCost="0"/>
  <variable name="s1" index="8" status="LL" value="0" reducedCost="0"/>
  <variable name="s2" index="9" status="LL" value="0" reducedCost="0"/>
  <variable name="s3" index="10" status="LL" value="0" reducedCost="0"/>
  <variable name="s4" index="11" status="LL" value="0" reducedCost="0"/>
  <variable name="s5" index="12" status="LL" value="0" reducedCost="0"/>
  <variable name="s6" index="13" status="LL" value="0" reducedCost="0"/>
  <variable name="s7" index="14" status="LL" value="0" reducedCost="0"/>
  <variable name="s8" index="15" status="LL" value="0" reducedCost="-0.88784048424425843"/>
  <variable name="s9" index="16" status="LL" value="0" reducedCost="0"/>
  <variable name="s10" index="17" status="LL" value="0" reducedCost="0"/>
  <variable name="s11" index="18" status="LL" value="0" reducedCost="0"/>
  <variable name="s12" index="19" status="LL" value="0" reducedCost="0"/>
  <variable name="s13" index="20" status="LL" value="0" reducedCost="-1.1876446501691296"/>
  <variable name="s14" index="21" status="LL" value="0" reducedCost="0"/>
 </variables>
 <objectiveValues>
  <objective index="0" name="" value="72.249599430300876"/>
 </objectiveValues>
</CPLEXSolution>
